p edge 25 25
e 1 15
e 2 13
e 3 7
e 3 9
e 3 10
e 3 22
e 4 17
e 5 20
e 5 23
e 8 14
e 11 12
e 11 13
e 11 14
e 11 19
e 12 15
e 13 14
e 13 15
e 13 23
e 13 25
e 14 25
e 16 22
e 17 24
e 19 22
e 21 24
e 21 25
